c ind 832 831 830 829 828 827 826 825 824 823 822 821 820 819 818 817 816 815 814 813 812 811 810 809 808 807 806 805 804 803 802 801  0
c ind 707 706 705 704 703 702 701 700 699 698 697 696 695 694 693 692 691 690 689 688 687 686 685 684 683 682 681 680 679 678 677 676  0
c ind 181 180 179 178 177 176 175 174 173 172 171 170 169 168 167 166 165 164 163 162 161 160 159 158 157 156 155 154 153 152 151 150  0
c ind 589 588 587 586 585 584 583 582 581 580 579 578 577 576 575 574 573 572 571 570 569 568 567 566 565 564 563 562 561 560 559 558  0
c ind 33 32 31 30 29 28 27 26 25 24 23 22 21 20 19 18 17 16 15 14 13 12 11 10 9 8 7 6 5 4 3 2  0
c ind 370 369 368 367 366 365 364 363 362 361 360 359 358 357 356 355 354 353 352 351 350 349 348 347 346 345 344 343 342 341 340 339  0
p cnf 863 1620
1 0
-2 0
-3 0
-4 0
-5 0
-6 0
-7 0
-8 0
-9 0
-10 0
-11 0
-12 0
-13 0
-14 0
-15 0
-16 0
-17 0
-18 0
-19 0
-20 0
-21 0
-22 0
-23 0
-24 0
-25 0
-26 0
27 0
28 0
29 0
-30 0
-31 0
32 0
33 0
34 0
35 0
36 0
37 0
38 0
39 0
40 0
41 0
42 0
43 0
44 0
45 0
46 0
47 0
48 0
49 0
50 0
51 0
52 0
53 0
54 0
55 0
56 0
57 0
58 0
59 0
60 0
-61 0
-62 0
-63 0
-64 0
65 0
66 0
67 0
68 0
69 0
70 0
71 0
72 0
73 0
74 0
75 0
76 0
77 0
78 0
79 0
80 0
81 0
82 0
83 0
84 0
85 0
86 0
87 0
88 0
89 0
90 0
-91 0
-92 0
-93 0
-94 0
-95 0
96 0
97 0
-98 0
-99 0
-100 0
-101 0
-102 0
-103 0
-104 0
-105 0
-106 0
-107 0
-108 0
109 0
110 0
111 0
112 0
113 0
114 0
115 0
116 0
117 0
118 0
119 0
120 0
121 0
122 0
123 0
124 0
125 0
126 0
127 0
128 0
129 0
130 0
131 0
132 0
-133 0
-134 0
-135 0
-136 0
-137 0
-138 0
-139 0
-140 0
-141 0
-142 0
143 0
-144 0
-145 0
-146 0
-147 0
-148 0
-149 0
-212 0
-243 0
-338 0
-465 0
-466 0
-467 0
-468 0
-469 0
-470 0
-471 0
-472 0
-473 0
-474 0
-475 0
-476 0
-477 0
-478 0
-479 0
-480 0
-481 0
-482 0
-483 0
-484 0
-485 0
-486 0
487 0
-488 0
-489 0
-490 0
-491 0
-492 0
-493 0
-494 0
-495 0
-496 0
-497 0
-498 0
-499 0
-500 0
-501 0
-502 0
-503 0
-504 0
-505 0
-506 0
-507 0
-508 0
-509 0
-510 0
-511 0
-512 0
-513 0
-518 0
-522 0
-526 0
-557 0
-558 0
-559 0
-560 0
-561 0
-562 0
-563 0
-564 0
-565 0
-566 0
-567 0
-568 0
-569 0
-570 0
-571 0
-572 0
-573 0
-574 0
-575 0
-576 0
-577 0
-578 0
-579 0
-580 0
-581 0
-582 0
-583 0
584 0
-585 0
-586 0
587 0
-588 0
589 0
590 0
591 0
592 0
593 0
594 0
595 0
596 0
597 0
598 0
599 0
600 0
601 0
602 0
603 0
604 0
605 0
606 0
607 0
608 0
609 0
610 0
611 0
612 0
613 0
614 0
-615 0
-616 0
-617 0
-618 0
-619 0
-620 0
621 0
622 0
623 0
624 0
625 0
626 0
627 0
628 0
629 0
630 0
631 0
632 0
633 0
634 0
635 0
636 0
637 0
638 0
639 0
640 0
641 0
642 0
643 0
644 0
645 0
646 0
647 0
648 0
649 0
650 0
651 0
-655 0
-658 0
-665 0
-668 0
-669 0
-670 0
-671 0
672 0
673 0
674 0
675 0
-738 0
-769 0
-800 0
-801 0
-802 0
-803 0
-804 0
-805 0
-806 0
-807 0
-808 0
-809 0
-810 0
-811 0
-812 0
-813 0
-814 0
-815 0
-816 0
-817 0
-818 0
-819 0
-820 0
-821 0
-822 0
-823 0
-824 0
-825 0
-826 0
-827 0
-828 0
-829 0
-830 0
-831 0
-832 0
833 0
834 0
835 0
836 0
837 0
838 0
839 0
840 0
841 0
842 0
843 0
844 0
845 0
846 0
847 0
848 0
849 0
850 0
851 0
852 0
853 0
854 0
855 0
856 0
857 0
858 0
859 0
860 0
861 0
862 0
863 0
-150 -182 0
-150 -213 0
-150 -527 0
-150 -274 -273 0
-150 274 273 0
150 151 182 0
150 151 213 0
150 -274 273 0
150 274 -273 0
150 151 527 0
-151 -182 0
-151 -213 0
-151 -273 0
-151 -527 0
-151 -275 -272 0
-151 275 272 0
151 -272 273 0
151 -275 272 0
151 275 -272 0
-152 -183 0
-152 -214 0
-152 -272 0
-152 -528 0
-152 -276 -271 0
-152 276 271 0
152 -182 183 0
152 -213 214 0
152 -271 272 0
152 -276 271 0
152 276 -271 0
152 -527 528 0
-153 -184 0
-153 -215 0
-153 -271 0
-153 -529 0
-153 -277 -270 0
-153 277 270 0
153 -183 184 0
153 -214 215 0
153 -270 271 0
153 -277 270 0
153 277 -270 0
153 -528 529 0
-154 -185 0
-154 -216 0
-154 -270 0
-154 -530 0
-154 -278 -269 0
-154 278 269 0
154 -184 185 0
154 -215 216 0
154 -269 270 0
154 -278 269 0
154 278 -269 0
154 -529 530 0
-155 -186 0
-155 -217 0
-155 -269 0
-155 -531 0
-155 -279 -268 0
-155 279 268 0
155 -185 186 0
155 -216 217 0
155 -268 269 0
155 -279 268 0
155 279 -268 0
155 -530 531 0
-156 -187 0
-156 -218 0
-156 -268 0
-156 -532 0
-156 -280 -267 0
-156 280 267 0
156 -186 187 0
156 -217 218 0
156 -267 268 0
156 -280 267 0
156 280 -267 0
156 -531 532 0
-157 -188 0
-157 -219 0
-157 -267 0
-157 -533 0
-157 -281 -266 0
-157 281 266 0
157 -187 188 0
157 -218 219 0
157 -266 267 0
157 -281 266 0
157 281 -266 0
157 -532 533 0
-158 -189 0
-158 -220 0
-158 -266 0
-158 -534 0
-158 -282 -265 0
-158 282 265 0
158 -188 189 0
158 -219 220 0
158 -265 266 0
158 -282 265 0
158 282 -265 0
158 -533 534 0
-159 -190 0
-159 -221 0
-159 -265 0
-159 -535 0
-159 -283 -264 0
-159 283 264 0
159 -189 190 0
159 -220 221 0
159 -264 265 0
159 -283 264 0
159 283 -264 0
159 -534 535 0
-160 -191 0
-160 -222 0
-160 -264 0
-160 -536 0
-160 -284 -263 0
-160 284 263 0
160 -190 191 0
160 -221 222 0
160 -263 264 0
160 -284 263 0
160 284 -263 0
160 -535 536 0
-161 -192 0
-161 -223 0
-161 -263 0
-161 -537 0
-161 -285 -262 0
-161 285 262 0
161 -191 192 0
161 -222 223 0
161 -262 263 0
161 -285 262 0
161 285 -262 0
161 -536 537 0
-162 -193 0
-162 -224 0
-162 -262 0
-162 -538 0
-162 -286 -261 0
-162 286 261 0
162 -192 193 0
162 -223 224 0
162 -261 262 0
162 -286 261 0
162 286 -261 0
162 -537 538 0
-163 -194 0
-163 -225 0
-163 -261 0
-163 -539 0
-163 -287 -260 0
-163 287 260 0
163 -193 194 0
163 -224 225 0
163 -260 261 0
163 -287 260 0
163 287 -260 0
163 -538 539 0
-164 -195 0
-164 -226 0
-164 -260 0
-164 -540 0
-164 -288 -259 0
-164 288 259 0
164 -194 195 0
164 -225 226 0
164 -259 260 0
164 -288 259 0
164 288 -259 0
164 -539 540 0
-165 -196 0
-165 -227 0
-165 -259 0
-165 -541 0
-165 -289 -258 0
-165 289 258 0
165 -195 196 0
165 -226 227 0
165 -258 259 0
165 -289 258 0
165 289 -258 0
165 -540 541 0
-166 -197 0
-166 -228 0
-166 -258 0
-166 -542 0
-166 -290 -257 0
-166 290 257 0
166 -196 197 0
166 -227 228 0
166 -257 258 0
166 -290 257 0
166 290 -257 0
166 -541 542 0
-167 -198 0
-167 -229 0
-167 -257 0
-167 -543 0
-167 -291 -256 0
-167 291 256 0
167 -197 198 0
167 -228 229 0
167 -256 257 0
167 -291 256 0
167 291 -256 0
167 -542 543 0
-168 -199 0
-168 -230 0
-168 -256 0
-168 -544 0
-168 -292 -255 0
-168 292 255 0
168 -198 199 0
168 -229 230 0
168 -255 256 0
168 -292 255 0
168 292 -255 0
168 -543 544 0
-169 -200 0
-169 -231 0
-169 -255 0
-169 -545 0
-169 -293 -254 0
-169 293 254 0
169 -199 200 0
169 -230 231 0
169 -254 255 0
169 -293 254 0
169 293 -254 0
169 -544 545 0
-170 -201 0
-170 -232 0
-170 -254 0
-170 -546 0
-170 -294 -253 0
-170 294 253 0
170 -200 201 0
170 -231 232 0
170 -253 254 0
170 -294 253 0
170 294 -253 0
170 -545 546 0
-171 -202 0
-171 -233 0
-171 -253 0
-171 -547 0
-171 -295 -252 0
-171 295 252 0
171 -201 202 0
171 -232 233 0
171 -252 253 0
171 -295 252 0
171 295 -252 0
171 -546 547 0
-172 -203 0
-172 -234 0
-172 -252 0
-172 -548 0
-172 -296 -251 0
-172 296 251 0
172 -202 203 0
172 -233 234 0
172 -251 252 0
172 -296 251 0
172 296 -251 0
172 -547 548 0
-173 -204 0
-173 -235 0
-173 -251 0
-173 -549 0
-173 -297 -250 0
-173 297 250 0
173 -203 204 0
173 -234 235 0
173 -250 251 0
173 -297 250 0
173 297 -250 0
173 -548 549 0
-174 -205 0
-174 -236 0
-174 -250 0
-174 -550 0
-174 -298 -249 0
-174 298 249 0
174 -204 205 0
174 -235 236 0
174 -249 250 0
174 -298 249 0
174 298 -249 0
174 -549 550 0
-175 -206 0
-175 -237 0
-175 -249 0
-175 -299 248 0
-175 299 -248 0
-175 -550 551 0
-175 -550 659 0
175 -551 0
175 -659 0
175 -205 206 0
175 -236 237 0
175 248 249 0
175 -299 -248 0
175 299 248 0
-176 -300 0
-176 -660 0
-176 -206 207 0
-176 -237 238 0
-176 -247 248 0
-176 -551 552 0
176 -207 0
176 -238 0
176 -248 0
176 -552 0
176 247 300 0
176 -659 660 0
-177 -239 0
-177 -302 0
-177 -514 0
-177 -553 0
-177 -661 0
-177 -207 208 0
-177 -246 247 0
177 -208 0
177 -247 0
177 -238 239 0
177 246 302 0
177 -238 514 0
177 -552 553 0
177 -660 661 0
-178 -209 0
-178 -304 0
-178 -515 0
-178 -519 0
-178 -523 0
-178 -554 0
-178 -239 240 0
-178 245 246 0
-178 -514 652 0
-178 -661 662 0
178 -240 0
178 -246 0
178 -652 0
178 -662 0
178 -208 209 0
178 -245 304 0
178 -514 515 0
178 -514 519 0
178 -514 523 0
178 -553 554 0
-179 -210 0
-179 -241 0
-179 -245 0
-179 -516 0
-179 -520 0
-179 -555 0
-179 -656 0
-179 -663 0
-179 -306 -244 0
-179 306 244 0
-179 -523 524 0
-179 -652 653 0
-179 -523 666 0
179 -524 0
179 -653 0
179 -666 0
179 -209 210 0
179 -240 241 0
179 -244 245 0
179 -306 244 0
179 306 -244 0
179 -515 516 0
179 -519 520 0
179 -554 555 0
179 -652 656 0
179 -662 663 0
-180 -211 0
-180 -244 0
-180 -517 0
-180 -525 0
-180 -654 0
-180 -664 0
-180 -241 242 0
-180 -307 181 0
-180 307 -181 0
-180 -520 521 0
-180 -555 556 0
-180 -656 657 0
-180 -666 667 0
180 -242 0
180 -521 0
180 -556 0
180 -657 0
180 -667 0
180 -210 211 0
180 181 244 0
180 -307 -181 0
180 307 181 0
180 -516 517 0
180 -524 525 0
180 -653 654 0
180 -663 664 0
-181 -244 0
-181 -521 0
-181 -525 0
-181 -654 0
-181 -657 0
-181 -664 0
-181 -667 0
-181 -336 337 0
181 -211 0
181 -242 0
181 -337 0
181 -517 0
181 -556 0
182 -183 0
183 -184 0
184 -185 0
185 -186 0
186 -187 0
187 -188 0
188 -189 0
189 -190 0
190 -191 0
191 -192 0
192 -193 0
193 -194 0
194 -195 0
195 -196 0
196 -197 0
197 -198 0
198 -199 0
199 -200 0
200 -201 0
201 -202 0
202 -203 0
203 -204 0
204 -205 0
205 -206 0
206 -207 0
207 -208 0
208 -209 0
209 -210 0
210 -211 0
213 -214 0
214 -215 0
215 -216 0
216 -217 0
217 -218 0
218 -219 0
219 -220 0
220 -221 0
221 -222 0
222 -223 0
223 -224 0
224 -225 0
225 -226 0
226 -227 0
227 -228 0
228 -229 0
229 -230 0
230 -231 0
231 -232 0
232 -233 0
233 -234 0
234 -235 0
235 -236 0
236 -237 0
237 -238 0
238 -239 0
238 -514 0
239 -240 0
240 -241 0
241 -242 0
244 -245 0
-245 -246 0
245 -304 0
-246 -302 0
-246 -305 0
246 -247 0
246 304 305 0
-247 -300 0
-247 -303 0
247 -248 0
247 302 303 0
-248 -249 0
-248 -301 0
248 300 301 0
249 -250 0
250 -251 0
251 -252 0
252 -253 0
253 -254 0
254 -255 0
255 -256 0
256 -257 0
257 -258 0
258 -259 0
259 -260 0
260 -261 0
261 -262 0
262 -263 0
263 -264 0
264 -265 0
265 -266 0
266 -267 0
267 -268 0
268 -269 0
269 -270 0
270 -271 0
271 -272 0
272 -273 0
274 337 0
-275 -308 0
275 276 308 0
-276 -308 0
-277 -309 0
277 -308 309 0
-278 -310 0
278 -309 310 0
-279 -311 0
279 -310 311 0
-280 -312 0
280 -311 312 0
-281 -313 0
281 -312 313 0
-282 -314 0
282 -313 314 0
-283 -315 0
283 -314 315 0
-284 -316 0
284 -315 316 0
-285 -317 0
285 -316 317 0
-286 -318 0
286 -317 318 0
-287 -319 0
287 -318 319 0
-288 -320 0
288 -319 320 0
-289 -321 0
289 -320 321 0
-290 -322 0
290 -321 322 0
-291 -323 0
291 -322 323 0
-292 -324 0
292 -323 324 0
-293 -325 0
293 -324 325 0
-294 -326 0
294 -325 326 0
-295 -327 0
295 -326 327 0
-296 -328 0
296 -327 328 0
-297 -329 0
297 -328 329 0
-298 -330 0
298 -329 330 0
-299 -331 0
299 -330 331 0
-300 -301 0
-301 -332 0
301 -331 332 0
-302 -303 0
-303 -333 0
303 -332 333 0
-304 -305 0
-305 -334 0
305 -333 334 0
-306 -335 0
306 -334 335 0
-307 -336 0
307 -335 336 0
308 -309 0
309 -310 0
310 -311 0
311 -312 0
312 -313 0
313 -314 0
314 -315 0
315 -316 0
316 -317 0
317 -318 0
318 -319 0
319 -320 0
320 -321 0
321 -322 0
322 -323 0
323 -324 0
324 -325 0
325 -326 0
326 -327 0
327 -328 0
328 -329 0
329 -330 0
330 -331 0
331 -332 0
332 -333 0
333 -334 0
334 -335 0
335 -336 0
336 -337 0
-339 -401 -400 0
-339 401 400 0
339 -401 400 0
339 401 -400 0
-340 -400 0
-340 -402 -399 0
-340 402 399 0
340 -399 400 0
340 -402 399 0
340 402 -399 0
-341 -399 0
-341 -403 -398 0
-341 403 398 0
341 -398 399 0
341 -403 398 0
341 403 -398 0
-342 -398 0
-342 -404 -397 0
-342 404 397 0
342 -397 398 0
342 -404 397 0
342 404 -397 0
-343 -397 0
-343 -405 -396 0
-343 405 396 0
343 -396 397 0
343 -405 396 0
343 405 -396 0
-344 -396 0
-344 -406 -395 0
-344 406 395 0
344 -395 396 0
344 -406 395 0
344 406 -395 0
-345 -395 0
-345 -407 -394 0
-345 407 394 0
345 -394 395 0
345 -407 394 0
345 407 -394 0
-346 -394 0
-346 -408 -393 0
-346 408 393 0
346 -393 394 0
346 -408 393 0
346 408 -393 0
-347 -393 0
-347 -409 -392 0
-347 409 392 0
347 -392 393 0
347 -409 392 0
347 409 -392 0
-348 -392 0
-348 -410 -391 0
-348 410 391 0
348 -391 392 0
348 -410 391 0
348 410 -391 0
-349 -391 0
-349 -411 -390 0
-349 411 390 0
349 -390 391 0
349 -411 390 0
349 411 -390 0
-350 -390 0
-350 -412 -389 0
-350 412 389 0
350 -389 390 0
350 -412 389 0
350 412 -389 0
-351 -389 0
-351 -413 -388 0
-351 413 388 0
351 -388 389 0
351 -413 388 0
351 413 -388 0
-352 -388 0
-352 -414 -387 0
-352 414 387 0
352 -387 388 0
352 -414 387 0
352 414 -387 0
-353 -387 0
-353 -415 -386 0
-353 415 386 0
353 -386 387 0
353 -415 386 0
353 415 -386 0
-354 -386 0
-354 -416 -385 0
-354 416 385 0
354 -385 386 0
354 -416 385 0
354 416 -385 0
-355 -385 0
-355 -417 -384 0
-355 417 384 0
355 -384 385 0
355 -417 384 0
355 417 -384 0
-356 -384 0
-356 -418 -383 0
-356 418 383 0
356 -383 384 0
356 -418 383 0
356 418 -383 0
-357 -383 0
-357 -419 -382 0
-357 419 382 0
357 -382 383 0
357 -419 382 0
357 419 -382 0
-358 -382 0
-358 -420 -381 0
-358 420 381 0
358 -381 382 0
358 -420 381 0
358 420 -381 0
-359 -381 0
-359 -421 -380 0
-359 421 380 0
359 -380 381 0
359 -421 380 0
359 421 -380 0
-360 -380 0
-360 -422 -379 0
-360 422 379 0
360 -379 380 0
360 -422 379 0
360 422 -379 0
-361 -379 0
-361 -423 -378 0
-361 423 378 0
361 -378 379 0
361 -423 378 0
361 423 -378 0
-362 -378 0
-362 -424 -377 0
-362 424 377 0
362 -377 378 0
362 -424 377 0
362 424 -377 0
-363 -377 0
-363 -425 -376 0
-363 425 376 0
363 -376 377 0
363 -425 376 0
363 425 -376 0
-364 -376 0
-364 -426 375 0
-364 426 -375 0
364 375 376 0
364 -426 -375 0
364 426 375 0
-365 -427 0
-365 -374 375 0
365 -375 0
365 374 427 0
-366 -429 0
-366 -373 374 0
366 -374 0
366 373 429 0
-367 -431 0
-367 372 373 0
367 -373 0
367 -372 431 0
-368 -372 0
-368 -433 -371 0
-368 433 371 0
368 -371 372 0
368 -433 371 0
368 433 -371 0
-369 -371 0
-369 -434 370 0
-369 434 -370 0
369 370 371 0
369 -434 -370 0
369 434 370 0
-370 -371 0
-370 -463 464 0
370 -464 0
371 -372 0
-372 -373 0
372 -431 0
-373 -429 0
-373 -432 0
373 -374 0
373 431 432 0
-374 -427 0
-374 -430 0
374 -375 0
374 429 430 0
-375 -376 0
-375 -428 0
375 427 428 0
376 -377 0
377 -378 0
378 -379 0
379 -380 0
380 -381 0
381 -382 0
382 -383 0
383 -384 0
384 -385 0
385 -386 0
386 -387 0
387 -388 0
388 -389 0
389 -390 0
390 -391 0
391 -392 0
392 -393 0
393 -394 0
394 -395 0
395 -396 0
396 -397 0
397 -398 0
398 -399 0
399 -400 0
401 464 0
-402 -435 0
402 403 435 0
-403 -435 0
-404 -436 0
404 -435 436 0
-405 -437 0
405 -436 437 0
-406 -438 0
406 -437 438 0
-407 -439 0
407 -438 439 0
-408 -440 0
408 -439 440 0
-409 -441 0
409 -440 441 0
-410 -442 0
410 -441 442 0
-411 -443 0
411 -442 443 0
-412 -444 0
412 -443 444 0
-413 -445 0
413 -444 445 0
-414 -446 0
414 -445 446 0
-415 -447 0
415 -446 447 0
-416 -448 0
416 -447 448 0
-417 -449 0
417 -448 449 0
-418 -450 0
418 -449 450 0
-419 -451 0
419 -450 451 0
-420 -452 0
420 -451 452 0
-421 -453 0
421 -452 453 0
-422 -454 0
422 -453 454 0
-423 -455 0
423 -454 455 0
-424 -456 0
424 -455 456 0
-425 -457 0
425 -456 457 0
-426 -458 0
426 -457 458 0
-427 -428 0
-428 -459 0
428 -458 459 0
-429 -430 0
-430 -460 0
430 -459 460 0
-431 -432 0
-432 -461 0
432 -460 461 0
-433 -462 0
433 -461 462 0
-434 -463 0
434 -462 463 0
435 -436 0
436 -437 0
437 -438 0
438 -439 0
439 -440 0
440 -441 0
441 -442 0
442 -443 0
443 -444 0
444 -445 0
445 -446 0
446 -447 0
447 -448 0
448 -449 0
449 -450 0
450 -451 0
451 -452 0
452 -453 0
453 -454 0
454 -455 0
455 -456 0
456 -457 0
457 -458 0
458 -459 0
459 -460 0
460 -461 0
461 -462 0
462 -463 0
463 -464 0
514 -515 0
514 -519 0
514 -523 0
514 -652 0
515 -516 0
516 -517 0
519 -520 0
520 -521 0
523 -524 0
523 -666 0
524 -525 0
527 -528 0
528 -529 0
529 -530 0
530 -531 0
531 -532 0
532 -533 0
533 -534 0
534 -535 0
535 -536 0
536 -537 0
537 -538 0
538 -539 0
539 -540 0
540 -541 0
541 -542 0
542 -543 0
543 -544 0
544 -545 0
545 -546 0
546 -547 0
547 -548 0
548 -549 0
549 -550 0
550 -551 0
550 -659 0
551 -552 0
552 -553 0
553 -554 0
554 -555 0
555 -556 0
652 -653 0
652 -656 0
653 -654 0
656 -657 0
659 -660 0
660 -661 0
661 -662 0
662 -663 0
663 -664 0
666 -667 0
-676 -708 0
-676 -739 0
-676 -770 0
676 677 708 0
676 677 739 0
676 677 770 0
-677 -708 0
-677 -739 0
-677 -770 0
-678 -709 0
-678 -740 0
-678 -771 0
678 -708 709 0
678 -739 740 0
678 -770 771 0
-679 -710 0
-679 -741 0
-679 -772 0
679 -709 710 0
679 -740 741 0
679 -771 772 0
-680 -711 0
-680 -742 0
-680 -773 0
680 -710 711 0
680 -741 742 0
680 -772 773 0
-681 -712 0
-681 -743 0
-681 -774 0
681 -711 712 0
681 -742 743 0
681 -773 774 0
-682 -713 0
-682 -744 0
-682 -775 0
682 -712 713 0
682 -743 744 0
682 -774 775 0
-683 -714 0
-683 -745 0
-683 -776 0
683 -713 714 0
683 -744 745 0
683 -775 776 0
-684 -715 0
-684 -746 0
-684 -777 0
684 -714 715 0
684 -745 746 0
684 -776 777 0
-685 -716 0
-685 -747 0
-685 -778 0
685 -715 716 0
685 -746 747 0
685 -777 778 0
-686 -717 0
-686 -748 0
-686 -779 0
686 -716 717 0
686 -747 748 0
686 -778 779 0
-687 -718 0
-687 -749 0
-687 -780 0
687 -717 718 0
687 -748 749 0
687 -779 780 0
-688 -719 0
-688 -750 0
-688 -781 0
688 -718 719 0
688 -749 750 0
688 -780 781 0
-689 -720 0
-689 -751 0
-689 -782 0
689 -719 720 0
689 -750 751 0
689 -781 782 0
-690 -721 0
-690 -752 0
-690 -783 0
690 -720 721 0
690 -751 752 0
690 -782 783 0
-691 -722 0
-691 -753 0
-691 -784 0
691 -721 722 0
691 -752 753 0
691 -783 784 0
-692 -723 0
-692 -754 0
-692 -785 0
692 -722 723 0
692 -753 754 0
692 -784 785 0
-693 -724 0
-693 -755 0
-693 -786 0
693 -723 724 0
693 -754 755 0
693 -785 786 0
-694 -725 0
-694 -756 0
-694 -787 0
694 -724 725 0
694 -755 756 0
694 -786 787 0
-695 -726 0
-695 -757 0
-695 -788 0
695 -725 726 0
695 -756 757 0
695 -787 788 0
-696 -727 0
-696 -758 0
-696 -789 0
696 -726 727 0
696 -757 758 0
696 -788 789 0
-697 -728 0
-697 -759 0
-697 -790 0
697 -727 728 0
697 -758 759 0
697 -789 790 0
-698 -729 0
-698 -760 0
-698 -791 0
698 -728 729 0
698 -759 760 0
698 -790 791 0
-699 -730 0
-699 -761 0
-699 -792 0
699 -729 730 0
699 -760 761 0
699 -791 792 0
-700 -731 0
-700 -762 0
-700 -793 0
700 -730 731 0
700 -761 762 0
700 -792 793 0
-701 -732 0
-701 -763 0
-701 -793 794 0
701 -794 0
701 -731 732 0
701 -762 763 0
-702 -733 0
-702 -795 0
-702 -763 764 0
702 -764 0
702 -732 733 0
702 -794 795 0
-703 -734 0
-703 -765 0
-703 -795 796 0
703 -796 0
703 -733 734 0
703 -764 765 0
-704 -735 0
-704 -766 0
-704 -796 797 0
704 -797 0
704 -734 735 0
704 -765 766 0
-705 -736 0
-705 -766 767 0
-705 -797 798 0
705 -767 0
705 -798 0
705 -735 736 0
-706 -737 0
-706 -768 0
-706 -799 0
706 -736 737 0
706 -767 768 0
706 -798 799 0
-707 -768 0
707 -737 0
707 -799 0
708 -709 0
709 -710 0
710 -711 0
711 -712 0
712 -713 0
713 -714 0
714 -715 0
715 -716 0
716 -717 0
717 -718 0
718 -719 0
719 -720 0
720 -721 0
721 -722 0
722 -723 0
723 -724 0
724 -725 0
725 -726 0
726 -727 0
727 -728 0
728 -729 0
729 -730 0
730 -731 0
731 -732 0
732 -733 0
733 -734 0
734 -735 0
735 -736 0
736 -737 0
739 -740 0
740 -741 0
741 -742 0
742 -743 0
743 -744 0
744 -745 0
745 -746 0
746 -747 0
747 -748 0
748 -749 0
749 -750 0
750 -751 0
751 -752 0
752 -753 0
753 -754 0
754 -755 0
755 -756 0
756 -757 0
757 -758 0
758 -759 0
759 -760 0
760 -761 0
761 -762 0
762 -763 0
763 -764 0
764 -765 0
765 -766 0
766 -767 0
767 -768 0
770 -771 0
771 -772 0
772 -773 0
773 -774 0
774 -775 0
775 -776 0
776 -777 0
777 -778 0
778 -779 0
779 -780 0
780 -781 0
781 -782 0
782 -783 0
783 -784 0
784 -785 0
785 -786 0
786 -787 0
787 -788 0
788 -789 0
789 -790 0
790 -791 0
791 -792 0
792 -793 0
793 -794 0
794 -795 0
795 -796 0
796 -797 0
797 -798 0
798 -799 0
